
List of user-set options:

                                    Name   Value                used
                           compl_inf_tol = 1                     yes
                         constr_viol_tol = 1                     yes
                            dual_inf_tol = 1000                  yes
                           linear_solver = ma97                  yes
                              ma86_small = 1e-30                  no
                                  ma86_u = 0.0001                 no
                              ma97_order = best                  yes
                              ma97_small = 1e-30                 yes
                            ma97_switch1 = at_start              yes
                            ma97_switch2 = od_hd_reuse           yes
                                  ma97_u = 1e-06                 yes
                               ma97_umax = 0.5                   yes
                                max_iter = 1000                  yes
                    max_refinement_steps = 20                    yes
                    min_refinement_steps = 5                     yes
                                 mu_init = 1e-06                 yes
           mu_superlinear_decrease_power = 1.25                  yes
                   nlp_scaling_min_value = 1e-08                 yes
                        option_file_name = Preset_Case_217_pf.opt  yes
                             output_file = ./tmp/Preset_Case_217_pf.output  yes
                      print_user_options = yes                   yes
        required_infeasibility_reduction = 1                      no
                                     tol = 1e-08                 yes
                   warm_start_bound_frac = 1e-20                 yes
                   warm_start_bound_push = 1e-20                 yes
                   warm_start_init_point = yes                   yes
              warm_start_mult_bound_push = 1e-20                 yes
                warm_start_mult_init_max = 1e+40                 yes
             warm_start_slack_bound_frac = 1e-20                 yes
             warm_start_slack_bound_push = 1e-20                 yes

******************************************************************************
This program contains Ipopt, a library for large-scale nonlinear optimization.
 Ipopt is released as open source code under the Eclipse Public License (EPL).
         For more information visit http://projects.coin-or.org/Ipopt
******************************************************************************

This is Ipopt version 3.12.10, running with linear solver ma97.

Number of nonzeros in equality constraint Jacobian...:   123442
Number of nonzeros in inequality constraint Jacobian.:      213
Number of nonzeros in Lagrangian Hessian.............:    49069

Total number of variables............................:    31591
                     variables with only lower bounds:    12912
                variables with lower and upper bounds:    15130
                     variables with only upper bounds:        0
Total number of equality constraints.................:    31483
Total number of inequality constraints...............:       25
        inequality constraints with only lower bounds:        4
   inequality constraints with lower and upper bounds:        0
        inequality constraints with only upper bounds:       21

iter    objective    inf_pr   inf_du lg(mu)  ||d||  lg(rg) alpha_du alpha_pr  ls
   0 -5.2700628e+00 4.05e-03 1.02e+00  -6.0 0.00e+00    -  0.00e+00 0.00e+00   0
   1 -5.2695259e+00 2.52e-01 3.26e+00  -6.0 3.63e+05    -  9.14e-05 1.60e-04h  4
   2 -5.2709442e+00 2.52e-01 3.80e+01  -6.0 2.76e+03    -  1.68e-01 2.00e-03h  1
   3 -5.3698178e+00 9.80e-01 2.36e+02  -6.0 2.75e+03    -  1.19e-01 1.40e-01f  1
   4 -5.4152864e+00 1.20e+00 2.97e+02  -6.0 2.37e+03    -  3.51e-01 9.04e-02h  1
   5 -5.7011922e+00 1.79e+01 3.02e+03  -6.0 2.59e+03    -  4.62e-01 6.99e-01h  1
   6 -5.7584143e+00 1.28e+01 1.40e+03  -6.0 1.01e+03    -  4.87e-02 5.61e-01h  1
   7 -5.7529781e+00 1.00e+01 1.07e+03  -6.0 5.75e+02    -  1.19e-01 2.41e-01h  1
   8 -5.7510993e+00 8.71e+00 9.26e+02  -6.0 7.16e+02    -  1.85e-01 1.35e-01h  1
   9 -5.7506003e+00 8.54e+00 3.21e+03  -6.0 1.85e+03    -  6.28e-03 2.30e-02h  1
iter    objective    inf_pr   inf_du lg(mu)  ||d||  lg(rg) alpha_du alpha_pr  ls
  10 -5.7441402e+00 6.97e+00 3.58e+03  -6.0 2.83e+02    -  1.39e-03 1.89e-01h  1
  11 -5.7159917e+00 1.37e+00 6.65e+03  -6.0 2.35e+02    -  1.23e-01 1.00e+00h  1
  12 -5.7167464e+00 1.59e+00 7.05e+03  -6.0 1.72e+03    -  4.43e-02 8.05e-02h  1
  13 -5.7257317e+00 2.51e+00 1.94e+04  -6.0 3.68e+02    -  3.13e-01 1.00e+00h  1
  14 -5.7266855e+00 1.92e+00 1.06e+06  -6.0 2.29e+01  -4.0 2.60e-03 2.35e-01h  1
  15 -5.7283083e+00 1.78e+00 8.56e+05  -6.0 7.63e+02    -  2.10e-01 1.95e-01h  1
  16 -5.7332494e+00 1.06e+00 5.27e+02  -6.0 5.88e+02    -  1.96e-03 1.00e+00h  1
  17 -5.7307743e+00 1.73e-03 1.40e+01  -6.0 8.53e-01  -4.5 6.67e-01 1.00e+00h  1
  18 -5.7313634e+00 1.18e-02 2.94e+00  -6.0 2.67e+00  -5.0 1.00e+00 1.00e+00h  1
  19 -5.7317425e+00 2.43e-03 4.36e-01  -6.0 6.83e+00  -5.4 7.10e-01 1.00e+00h  1
iter    objective    inf_pr   inf_du lg(mu)  ||d||  lg(rg) alpha_du alpha_pr  ls
  20 -5.7331052e+00 1.20e-02 4.73e-01  -6.0 2.04e+01  -5.9 1.00e+00 1.00e+00h  1
  21 -5.7373407e+00 1.22e-01 9.34e-01  -6.0 6.49e+01  -6.4 1.00e+00 1.00e+00h  1
  22 -5.7510358e+00 1.22e+00 6.26e+00  -6.0 2.47e+02  -6.9 8.85e-01 8.28e-01h  1
  23 -5.7578524e+00 8.78e+00 2.97e+05  -6.0 2.15e+03    -  3.33e-01 1.00e+00h  1
  24 -5.7593927e+00 2.19e+00 6.86e+04  -6.0 1.99e+02  -6.4 2.01e-01 7.48e-01h  1
  25 -5.7578674e+00 2.05e+00 1.62e+05  -6.0 1.27e+03    -  2.55e-01 8.35e-02h  1
  26 -5.7651668e+00 1.92e+00 1.51e+05  -6.0 1.26e+03    -  1.19e-01 6.25e-02h  1
  27 -5.7782426e+00 1.56e+00 1.18e+05  -6.0 7.66e+02    -  5.93e-01 2.19e-01h  1
  28 -5.7844964e+00 3.30e+00 1.11e+05  -6.0 7.35e+03    -  1.51e-02 6.20e-02h  1
  29 -5.7904377e+00 2.35e+00 7.29e+04  -6.0 3.94e+02    -  5.70e-01 3.40e-01h  1
iter    objective    inf_pr   inf_du lg(mu)  ||d||  lg(rg) alpha_du alpha_pr  ls
  30 -5.7948322e+00 8.29e-01 1.75e+04  -6.0 6.50e+02    -  3.55e-01 7.60e-01h  1
  31 -5.7938040e+00 1.11e+00 1.32e+02  -6.0 4.73e+02    -  9.88e-01 1.00e+00h  1
  32 -5.7928762e+00 9.14e-01 1.11e+02  -6.0 2.20e+02    -  4.07e-01 3.01e-01h  1
  33 -5.7933132e+00 1.16e+00 5.81e+00  -6.0 1.96e+02    -  1.00e+00 9.69e-01h  1
  34 -5.7864176e+00 8.68e-01 2.33e+04  -6.0 4.49e+02    -  7.71e-04 5.56e-01H  1
  35 -5.7849045e+00 8.72e-01 2.22e+04  -6.0 3.74e+03    -  5.61e-01 4.82e-02h  2
  36 -5.7821038e+00 8.82e-01 2.12e+04  -6.0 6.08e+03    -  7.19e-02 4.70e-02h  2
  37 -5.7811062e+00 8.77e-01 2.06e+04  -6.0 3.62e+03    -  2.65e-02 2.61e-02h  3
  38 -5.7810620e+00 8.76e-01 2.06e+04  -6.0 1.27e+03  -6.0 7.25e-03 1.78e-03h  1
  39 -5.7838004e+00 7.08e-01 1.59e+04  -6.0 1.85e+02  -6.5 5.33e-01 2.30e-01f  1
iter    objective    inf_pr   inf_du lg(mu)  ||d||  lg(rg) alpha_du alpha_pr  ls
  40 -5.7834819e+00 7.07e-01 1.58e+04  -6.0 4.66e+03    -  8.27e-02 6.87e-03h  4
  41 -5.7835386e+00 6.98e-01 1.56e+04  -6.0 1.37e+02  -6.1 2.69e-01 1.23e-02h  1
  42 -5.7851275e+00 9.99e-02 2.00e+01  -6.0 4.88e+01  -6.5 7.66e-01 1.00e+00f  1
  43 -5.7864536e+00 8.39e-01 9.54e+00  -6.0 1.05e+02  -7.0 8.51e-01 6.57e-01h  1
  44 -5.7896899e+00 2.79e+00 1.36e+01  -6.0 2.46e+02  -7.5 5.20e-01 1.00e+00h  1
  45 -5.7927918e+00 1.05e+00 1.85e+02  -6.0 8.89e+02    -  7.45e-01 1.00e+00h  1
  46 -5.7908659e+00 2.52e-01 7.14e+01  -6.0 2.13e+02    -  1.00e+00 1.00e+00h  1
  47 -5.7904145e+00 5.42e-03 2.11e+00  -6.0 5.23e+01    -  1.00e+00 1.00e+00h  1
  48 -5.7904224e+00 3.78e-04 6.50e-02  -6.0 1.38e+01    -  1.00e+00 1.00e+00h  1
  49 -5.7904223e+00 9.15e-09 2.65e-06  -6.0 7.72e-02    -  1.00e+00 1.00e+00h  1
iter    objective    inf_pr   inf_du lg(mu)  ||d||  lg(rg) alpha_du alpha_pr  ls
  50 -5.7906041e+00 3.34e+00 8.58e+01  -7.5 6.09e+02    -  4.76e-01 7.67e-01h  1
  51 -5.7905835e+00 8.24e-01 1.41e+01  -7.5 1.41e+02    -  9.09e-01 8.19e-01h  1
  52 -5.7905749e+00 2.41e-02 2.71e-01  -7.5 3.83e+01    -  1.00e+00 1.00e+00h  1
  53 -5.7905747e+00 5.37e-06 6.93e-06  -7.5 6.08e-01    -  1.00e+00 1.00e+00h  1
  54 -5.7905747e+00 1.21e-09 1.04e-09  -7.5 8.76e-03    -  1.00e+00 1.00e+00h  1
  55 -5.7905762e+00 4.47e-03 9.51e-01  -9.0 2.04e+01    -  9.29e-01 8.26e-01h  1
  56 -5.7905764e+00 2.09e-04 2.47e-01  -9.0 3.64e+00    -  9.46e-01 1.00e+00h  1
  57 -5.7905764e+00 2.49e-10 4.19e-09  -9.0 3.81e-03    -  1.00e+00 1.00e+00h  1

Number of Iterations....: 57

                                   (scaled)                 (unscaled)
Objective...............:  -4.5238878474365851e+00   -5.7905764447188286e+00
Dual infeasibility......:   4.1881698934337547e-09    5.3608574635952064e-09
Constraint violation....:   2.4925539453615753e-10    2.4925539453615753e-10
Complementarity.........:   1.3213677003252899e-09    1.6913506564163711e-09
Overall NLP error.......:   4.1881698934337547e-09    5.3608574635952064e-09


Number of objective function evaluations             = 75
Number of objective gradient evaluations             = 58
Number of equality constraint evaluations            = 75
Number of inequality constraint evaluations          = 75
Number of equality constraint Jacobian evaluations   = 58
Number of inequality constraint Jacobian evaluations = 58
Number of Lagrangian Hessian evaluations             = 57
Total CPU secs in IPOPT (w/o function evaluations)   =    119.517
Total CPU secs in NLP function evaluations           =      2.160

EXIT: Optimal Solution Found.
